# adjusted according to 3.1.2
param n:=5; # 5 demand regions 
param m:=5; # 6 origins 

param F:=
		1 800
		2 650
		3 1000
		4 610
		5 600;
param D:=
		1	80
		2	270
		3	250
		4	160
		5	180;
param C:
		1	2	3	4	5:=
	1	81	92	101	130	115
	2	117	77	108	98	100
	3	102	105	95	119	111
	4	115	125	90	59	74
	5	142	100	103	105	71; 
	
param cap:=
1	450
2	325
3	500
4	305
5	300;
